72 75 22 74 
39 23 67 55 25 
95 98 16 86 37 93 
52 6 
59 5 99 94 96 
65 71 9 20 32 70 
12 76 79 3 68 
92 42 15 87 57 58 
36 47 19 8 46 17 
28 29 78 34 35 77 
27 69 30 51 66 1 
14 44 38 43 91 100 
63 64 49 48 
62 11 90 10 
45 83 61 85 97 13 
53 26 
33 81 50 
31 88 7 
2 21 73 41 56 4 
40 54 24 80 
82 18 84 60 89 
